Route #1: 1 44 5 29 40 51 8 6 19 21 36 1
Route #2: 1 53 17 7 33 14 12 28 15 1
Route #3: 1 31 35 42 47 52 43 13 3 49 41 32 16 1
Route #4: 1 18 39 34 10 22 27 1
Route #5: 1 48 26 25 20 9 38 1
Route #6: 1 45 4 23 54 46 1
Route #7: 1 30 11 37 2 50 24 1
cost 1382.1588332127474